175641
44,45,53,79,61,69,25,35,65,70,20,47,23,30,18,21,43,67,58,52,7,82,14,27,78,5,60,4,68,24,41,54,22,11,2,56,42,59,46,80,71,50,33,48,77,29,1,37,15,32,26,6,55,16,10,39,73,57,8,31,74,3,49,34,76,13,81,36,64,62,38,40,51,19,75,66,12,17,0,9,28,63,72